row=11;
column=11;
Board=[|0,0,0,0,0,0,0,0,0,0,0|0,0,0,0,0,0,0,4,5,0,0|0,0,4,6,0,0,0,0,0,0,0|0,0,0,0,0,0,0,0,0,0,3|0,0,0,0,0,0,0,0,0,0,0|0,0,0,0,0,0,0,0,0,0,0|0,0,0,0,0,0,0,0,0,0,0|3,0,0,0,0,0,0,0,0,3,0|0,0,0,0,0,0,0,0,0,0,0|0,0,0,0,0,0,0,0,0,0,0|0,0,0,1,0,0,0,0,0,0,0|];
right = [1,3,5,1,0,1,4,2,1,0,2];
bottom = [2,1,1,2,1,1,1,3,1,3,4];
